p cnf 7230 17
-3396 -3402 -3408 -3420 3788 0
3396 -3789 0
3402 -3789 0
-2804 -3392 -3784 0
2804 -3785 0
3408 -3789 0
-3788 3789 0
3786 3787 0
3394 -3787 0
-3394 -3786 0
3784 3785 0
3392 -3785 0
3420 -3789 0
3782 3783 0
-3782 -3783 0
3418 -3791 0
3412 -3791 0
